NAME F-JSSP-SDST
ROWS
 N  OBJ
 E  c0      
 E  c1      
 E  c2      
 E  c3      
 E  c4      
 E  c5      
 E  c6      
 E  c7      
 E  c8      
 L  c9      
 L  c10     
 L  c11     
 L  c12     
 L  c13     
 L  c14     
 L  c15     
 L  c16     
 L  c17     
 L  c18     
 L  c19     
 L  c20     
 L  c21     
 L  c22     
 L  c23     
 L  c24     
 L  c25     
 L  c26     
 G  c27     
 G  c28     
 G  c29     
 G  c30     
 G  c31     
 G  c32     
 G  c33     
 G  c34     
 G  c35     
 G  c36     
 G  c37     
 G  c38     
 G  c39     
 G  c40     
 G  c41     
 G  c42     
 G  c43     
 G  c44     
 G  c45     
 G  c46     
 G  c47     
 G  c48     
 G  c49     
 G  c50     
 G  c51     
 G  c52     
 G  c53     
 G  c54     
 G  c55     
 G  c56     
 G  c57     
 G  c58     
 G  c59     
 G  c60     
 G  c61     
 G  c62     
 G  c63     
 G  c64     
 G  c65     
 G  c66     
 G  c67     
 G  c68     
 G  c69     
 G  c70     
 G  c71     
 G  c72     
 G  c73     
 G  c74     
 G  c75     
 G  c76     
 G  c77     
 G  c78     
 G  c79     
 G  c80     
 G  c81     
 G  c82     
 G  c83     
 G  c84     
 G  c85     
 G  c86     
 G  c87     
 G  c88     
 G  c89     
 G  c90     
 G  c91     
 G  c92     
 G  c93     
 G  c94     
 G  c95     
 G  c96     
 G  c97     
 G  c98     
 G  c99     
 G  c100    
 G  c101    
 G  c102    
 G  c103    
 G  c104    
 G  c105    
 G  c106    
 G  c107    
 G  c108    
 G  c109    
 G  c110    
 L  c111    
 G  c112    
 L  c113    
 G  c114    
 L  c115    
 G  c116    
 L  c117    
 G  c118    
 L  c119    
 G  c120    
 L  c121    
 G  c122    
 L  c123    
 G  c124    
 L  c125    
 G  c126    
 L  c127    
 G  c128    
 L  c129    
 G  c130    
 L  c131    
 G  c132    
 L  c133    
 G  c134    
 L  c135    
 G  c136    
 L  c137    
 G  c138    
 L  c139    
 G  c140    
 L  c141    
 G  c142    
 L  c143    
 G  c144    
 L  c145    
 G  OF_constraint
COLUMNS
    MARKER    'MARKER'                 'INTORG'
    B0(10)    c0        1
    B0(10)    c9        -1000000000
    B0(10)    c27       -117
    B0(10)    c28       -117
    B0(10)    c38       -1000000000
    B0(10)    c39       -1000000000
    B0(10)    c42       -1000000000
    B0(10)    c43       -1000000000
    B0(10)    c110      117
    B0(10)    c111      117
    B1(10)    c0        1
    B1(10)    c10       -1000000000
    B1(10)    c27       -125
    B1(10)    c28       -1000000125
    B1(10)    c40       -1000000000
    B1(10)    c41       -1000000000
    B1(10)    c44       -1000000000
    B1(10)    c45       -1000000000
    B1(10)    c112      125
    B1(10)    c113      125
    B2(10)    c1        1
    B2(10)    c11       -1000000000
    B2(10)    c29       -140
    B2(10)    c30       -1000000140
    B2(10)    c50       -1000000000
    B2(10)    c51       -1000000000
    B2(10)    c52       -1000000000
    B2(10)    c53       -1000000000
    B2(10)    c114      140
    B2(10)    c115      140
    B3(11)    c1        1
    B3(11)    c12       -1000000000
    B3(11)    c28       -1000000000
    B3(11)    c29       -130
    B3(11)    c30       -130
    B3(11)    c46       -1000000000
    B3(11)    c47       -1000000000
    B3(11)    c48       -1000000000
    B3(11)    c49       -1000000000
    B3(11)    c116      130
    B3(11)    c117      130
    B4(9)     c2        1
    B4(9)     c13       -1000000000
    B4(9)     c30       -1000000000
    B4(9)     c56       -1000000000
    B4(9)     c57       -1000000000
    B4(9)     c58       -1000000000
    B4(9)     c59       -1000000000
    B4(9)     c118      150
    B4(9)     c119      150
    B5(8)     c2        1
    B5(8)     c14       -1000000000
    B5(8)     c54       -1000000000
    B5(8)     c55       -1000000000
    B5(8)     c60       -1000000000
    B5(8)     c61       -1000000000
    B5(8)     c120      160
    B5(8)     c121      160
    B6(10)    c3        1
    B6(10)    c15       -1000000000
    B6(10)    c31       -214
    B6(10)    c32       -214
    B6(10)    c38       -1000000000
    B6(10)    c39       -1000000000
    B6(10)    c62       -1000000000
    B6(10)    c63       -1000000000
    B6(10)    c122      214
    B6(10)    c123      214
    B7(8)     c3        1
    B7(8)     c16       -1000000000
    B7(8)     c31       -150
    B7(8)     c32       -1000000150
    B7(8)     c64       -1000000000
    B7(8)     c65       -1000000000
    B7(8)     c124      150
    B7(8)     c125      150
    B8(9)     c4        1
    B8(9)     c17       -1000000000
    B8(9)     c32       -1000000000
    B8(9)     c33       -55
    B8(9)     c34       -1000000055
    B8(9)     c68       -1000000000
    B8(9)     c69       -1000000000
    B8(9)     c126      55
    B8(9)     c127      55
    B9(12)    c4        1
    B9(12)    c18       -1000000000
    B9(12)    c33       -66
    B9(12)    c34       -66
    B9(12)    c40       -1000000000
    B9(12)    c41       -1000000000
    B9(12)    c46       -1000000000
    B9(12)    c47       -1000000000
    B9(12)    c66       -1000000000
    B9(12)    c67       -1000000000
    B9(12)    c128      66
    B9(12)    c129      66
    B10(8)    c5        1
    B10(8)    c19       -1000000000
    B10(8)    c54       -1000000000
    B10(8)    c55       -1000000000
    B10(8)    c72       -1000000000
    B10(8)    c73       -1000000000
    B10(8)    c130      78
    B10(8)    c131      78
    B11(7)    c5        1
    B11(7)    c20       -1000000000
    B11(7)    c34       -1000000000
    B11(7)    c70       -1000000000
    B11(7)    c71       -1000000000
    B11(7)    c132      65
    B11(7)    c133      65
    B12(9)    c6        1
    B12(9)    c21       -1000000000
    B12(9)    c35       -87
    B12(9)    c42       -1000000000
    B12(9)    c43       -1000000000
    B12(9)    c62       -1000000000
    B12(9)    c63       -1000000000
    B12(9)    c134      87
    B12(9)    c135      87
    B13(11)   c6        1
    B13(11)   c22       -1000000000
    B13(11)   c35       -62
    B13(11)   c44       -1000000000
    B13(11)   c45       -1000000000
    B13(11)   c48       -1000000000
    B13(11)   c49       -1000000000
    B13(11)   c66       -1000000000
    B13(11)   c67       -1000000000
    B13(11)   c136      62
    B13(11)   c137      62
    B14(10)   c7        1
    B14(10)   c23       -1000000000
    B14(10)   c36       -70
    B14(10)   c37       -1000000070
    B14(10)   c50       -1000000000
    B14(10)   c51       -1000000000
    B14(10)   c56       -1000000000
    B14(10)   c57       -1000000000
    B14(10)   c138      70
    B14(10)   c139      70
    B15(12)   c7        1
    B15(12)   c24       -1000000000
    B15(12)   c36       -80
    B15(12)   c37       -80
    B15(12)   c64       -1000000000
    B15(12)   c65       -1000000000
    B15(12)   c68       -1000000000
    B15(12)   c69       -1000000000
    B15(12)   c70       -1000000000
    B15(12)   c71       -1000000000
    B15(12)   c140      80
    B15(12)   c141      80
    B16(9)    c8        1
    B16(9)    c25       -1000000000
    B16(9)    c37       -1000000000
    B16(9)    c52       -1000000000
    B16(9)    c53       -1000000000
    B16(9)    c58       -1000000000
    B16(9)    c59       -1000000000
    B16(9)    c142      190
    B16(9)    c143      190
    B17(8)    c8        1
    B17(8)    c26       -1000000000
    B17(8)    c60       -1000000000
    B17(8)    c61       -1000000000
    B17(8)    c72       -1000000000
    B17(8)    c73       -1000000000
    B17(8)    c144      100
    B17(8)    c145      100
    B18(0)    OBJ       0
    B19(0)    OBJ       0
    B20(0)    OBJ       0
    B21(2)    c38       -1000000000
    B21(2)    c39       1000000000
    B22(2)    c40       -1000000000
    B22(2)    c41       1000000000
    B23(0)    OBJ       0
    B24(4)    c42       -1000000000
    B24(4)    c43       1000000000
    B24(4)    c44       -1000000000
    B24(4)    c45       1000000000
    B25(0)    OBJ       0
    B26(0)    OBJ       0
    B27(0)    OBJ       0
    B28(0)    OBJ       0
    B29(0)    OBJ       0
    B30(0)    OBJ       0
    B31(2)    c46       -1000000000
    B31(2)    c47       1000000000
    B32(0)    OBJ       0
    B33(2)    c48       -1000000000
    B33(2)    c49       1000000000
    B34(2)    c50       -1000000000
    B34(2)    c51       1000000000
    B35(2)    c52       -1000000000
    B35(2)    c53       1000000000
    B36(0)    OBJ       0
    B37(0)    OBJ       0
    B38(0)    OBJ       0
    B39(0)    OBJ       0
    B40(0)    OBJ       0
    B41(2)    c54       -1000000000
    B41(2)    c55       1000000000
    B42(0)    OBJ       0
    B43(2)    c56       -1000000000
    B43(2)    c57       1000000000
    B44(4)    c58       -1000000000
    B44(4)    c59       1000000000
    B44(4)    c60       -1000000000
    B44(4)    c61       1000000000
    B45(0)    OBJ       0
    B46(0)    OBJ       0
    B47(0)    OBJ       0
    B48(0)    OBJ       0
    B49(0)    OBJ       0
    B50(0)    OBJ       0
    B51(2)    c62       -1000000000
    B51(2)    c63       1000000000
    B52(2)    c64       -1000000000
    B52(2)    c65       1000000000
    B53(0)    OBJ       0
    B54(0)    OBJ       0
    B55(0)    OBJ       0
    B56(0)    OBJ       0
    B57(0)    OBJ       0
    B58(0)    OBJ       0
    B59(0)    OBJ       0
    B60(2)    c66       -1000000000
    B60(2)    c67       1000000000
    B61(2)    c68       -1000000000
    B61(2)    c69       1000000000
    B62(0)    OBJ       0
    B63(0)    OBJ       0
    B64(0)    OBJ       0
    B65(0)    OBJ       0
    B66(0)    OBJ       0
    B67(0)    OBJ       0
    B68(0)    OBJ       0
    B69(0)    OBJ       0
    B70(2)    c70       -1000000000
    B70(2)    c71       1000000000
    B71(2)    c72       -1000000000
    B71(2)    c73       1000000000
    B72(0)    OBJ       0
    B73(0)    OBJ       0
    B74(0)    OBJ       0
    B75(0)    OBJ       0
    B76(0)    OBJ       0
    B77(0)    OBJ       0
    B78(0)    OBJ       0
    B79(0)    OBJ       0
    B80(0)    OBJ       0
    B81(0)    OBJ       0
    B82(0)    OBJ       0
    B83(0)    OBJ       0
    B84(0)    OBJ       0
    B85(0)    OBJ       0
    B86(0)    OBJ       0
    B87(0)    OBJ       0
    B88(0)    OBJ       0
    B89(0)    OBJ       0
    B90(0)    OBJ       0
    B91(0)    OBJ       0
    B92(0)    OBJ       0
    B93(0)    OBJ       0
    B94(0)    OBJ       0
    B95(0)    OBJ       0
    B96(0)    OBJ       0
    B97(0)    OBJ       0
    B98(0)    OBJ       0
    I99(11)   c9        1
    I99(11)   c27       -1
    I99(11)   c28       -1
    I99(11)   c38       1
    I99(11)   c39       -1
    I99(11)   c42       1
    I99(11)   c43       -1
    I99(11)   c74       1
    I99(11)   c75       1
    I99(11)   c110      1
    I99(11)   c111      1
    I100(11)  c10       1
    I100(11)  c27       -1
    I100(11)  c28       -1
    I100(11)  c40       1
    I100(11)  c41       -1
    I100(11)  c44       1
    I100(11)  c45       -1
    I100(11)  c76       1
    I100(11)  c77       1
    I100(11)  c112      1
    I100(11)  c113      1
    I101(13)  c11       1
    I101(13)  c27       1
    I101(13)  c28       1
    I101(13)  c29       -1
    I101(13)  c30       -1
    I101(13)  c50       1
    I101(13)  c51       -1
    I101(13)  c52       1
    I101(13)  c53       -1
    I101(13)  c78       1
    I101(13)  c79       1
    I101(13)  c114      1
    I101(13)  c115      1
    I102(13)  c12       1
    I102(13)  c27       1
    I102(13)  c28       1
    I102(13)  c29       -1
    I102(13)  c30       -1
    I102(13)  c46       1
    I102(13)  c47       -1
    I102(13)  c48       1
    I102(13)  c49       -1
    I102(13)  c80       1
    I102(13)  c81       1
    I102(13)  c116      1
    I102(13)  c117      1
    I103(12)  c13       1
    I103(12)  c29       1
    I103(12)  c30       1
    I103(12)  c56       1
    I103(12)  c57       -1
    I103(12)  c58       1
    I103(12)  c59       -1
    I103(12)  c82       1
    I103(12)  c83       1
    I103(12)  c118      1
    I103(12)  c119      1
    I104(12)  c14       1
    I104(12)  c29       1
    I104(12)  c30       1
    I104(12)  c54       1
    I104(12)  c55       -1
    I104(12)  c60       1
    I104(12)  c61       -1
    I104(12)  c84       1
    I104(12)  c85       1
    I104(12)  c120      1
    I104(12)  c121      1
    I105(11)  c15       1
    I105(11)  c31       -1
    I105(11)  c32       -1
    I105(11)  c38       -1
    I105(11)  c39       1
    I105(11)  c62       1
    I105(11)  c63       -1
    I105(11)  c86       1
    I105(11)  c87       1
    I105(11)  c122      1
    I105(11)  c123      1
    I106(9)   c16       1
    I106(9)   c31       -1
    I106(9)   c32       -1
    I106(9)   c64       1
    I106(9)   c65       -1
    I106(9)   c88       1
    I106(9)   c89       1
    I106(9)   c124      1
    I106(9)   c125      1
    I107(11)  c17       1
    I107(11)  c31       1
    I107(11)  c32       1
    I107(11)  c33       -1
    I107(11)  c34       -1
    I107(11)  c68       1
    I107(11)  c69       -1
    I107(11)  c90       1
    I107(11)  c91       1
    I107(11)  c126      1
    I107(11)  c127      1
    I108(15)  c18       1
    I108(15)  c31       1
    I108(15)  c32       1
    I108(15)  c33       -1
    I108(15)  c34       -1
    I108(15)  c40       -1
    I108(15)  c41       1
    I108(15)  c46       -1
    I108(15)  c47       1
    I108(15)  c66       1
    I108(15)  c67       -1
    I108(15)  c92       1
    I108(15)  c93       1
    I108(15)  c128      1
    I108(15)  c129      1
    I109(12)  c19       1
    I109(12)  c33       1
    I109(12)  c34       1
    I109(12)  c54       -1
    I109(12)  c55       1
    I109(12)  c72       1
    I109(12)  c73       -1
    I109(12)  c94       1
    I109(12)  c95       1
    I109(12)  c130      1
    I109(12)  c131      1
    I110(10)  c20       1
    I110(10)  c33       1
    I110(10)  c34       1
    I110(10)  c70       1
    I110(10)  c71       -1
    I110(10)  c96       1
    I110(10)  c97       1
    I110(10)  c132      1
    I110(10)  c133      1
    I111(10)  c21       1
    I111(10)  c35       -1
    I111(10)  c42       -1
    I111(10)  c43       1
    I111(10)  c62       -1
    I111(10)  c63       1
    I111(10)  c98       1
    I111(10)  c99       1
    I111(10)  c134      1
    I111(10)  c135      1
    I112(12)  c22       1
    I112(12)  c35       -1
    I112(12)  c44       -1
    I112(12)  c45       1
    I112(12)  c48       -1
    I112(12)  c49       1
    I112(12)  c66       -1
    I112(12)  c67       1
    I112(12)  c100      1
    I112(12)  c101      1
    I112(12)  c136      1
    I112(12)  c137      1
    I113(12)  c23       1
    I113(12)  c35       1
    I113(12)  c36       -1
    I113(12)  c37       -1
    I113(12)  c50       -1
    I113(12)  c51       1
    I113(12)  c56       -1
    I113(12)  c57       1
    I113(12)  c102      1
    I113(12)  c103      1
    I113(12)  c138      1
    I113(12)  c139      1
    I114(14)  c24       1
    I114(14)  c35       1
    I114(14)  c36       -1
    I114(14)  c37       -1
    I114(14)  c64       -1
    I114(14)  c65       1
    I114(14)  c68       -1
    I114(14)  c69       1
    I114(14)  c70       -1
    I114(14)  c71       1
    I114(14)  c104      1
    I114(14)  c105      1
    I114(14)  c140      1
    I114(14)  c141      1
    I115(12)  c25       1
    I115(12)  c36       1
    I115(12)  c37       1
    I115(12)  c52       -1
    I115(12)  c53       1
    I115(12)  c58       -1
    I115(12)  c59       1
    I115(12)  c106      1
    I115(12)  c107      1
    I115(12)  c142      1
    I115(12)  c143      1
    I116(12)  c26       1
    I116(12)  c36       1
    I116(12)  c37       1
    I116(12)  c60       -1
    I116(12)  c61       1
    I116(12)  c72       -1
    I116(12)  c73       1
    I116(12)  c108      1
    I116(12)  c109      1
    I116(12)  c144      1
    I116(12)  c145      1
    I117(1)   OBJ       1
    I117(1)   OF_constraint  1
    B118(2)   c110      -1000000000
    B118(2)   c111      -1000000000
    B119(2)   c112      -1000000000
    B119(2)   c113      -1000000000
    B120(2)   c114      -1000000000
    B120(2)   c115      -1000000000
    B121(2)   c116      -1000000000
    B121(2)   c117      -1000000000
    B122(4)   c118      -1000000000
    B122(4)   c119      -1000000000
    B122(4)   OF_constraint  -55
    B123(4)   c120      -1000000000
    B123(4)   c121      -1000000000
    B123(4)   OF_constraint  -65
    B124(2)   c122      -1000000000
    B124(2)   c123      -1000000000
    B125(2)   c124      -1000000000
    B125(2)   c125      -1000000000
    B126(2)   c126      -1000000000
    B126(2)   c127      -1000000000
    B127(2)   c128      -1000000000
    B127(2)   c129      -1000000000
    B128(4)   c130      -1000000000
    B128(4)   c131      -1000000000
    B128(4)   OF_constraint  7
    B129(4)   c132      -1000000000
    B129(4)   c133      -1000000000
    B129(4)   OF_constraint  20
    B130(2)   c134      -1000000000
    B130(2)   c135      -1000000000
    B131(2)   c136      -1000000000
    B131(2)   c137      -1000000000
    B132(2)   c138      -1000000000
    B132(2)   c139      -1000000000
    B133(2)   c140      -1000000000
    B133(2)   c141      -1000000000
    B134(4)   c142      -1000000000
    B134(4)   c143      -1000000000
    B134(4)   OF_constraint  -143
    B135(4)   c144      -1000000000
    B135(4)   c145      -1000000000
    B135(4)   OF_constraint  -53
    MARKER    'MARKER'                 'INTEND'
RHS
    RHS1      c0        1
    RHS1      c1        1
    RHS1      c2        1
    RHS1      c3        1
    RHS1      c4        1
    RHS1      c5        1
    RHS1      c6        1
    RHS1      c7        1
    RHS1      c8        1
    RHS1      c28       -1999999991
    RHS1      c30       -1999999990
    RHS1      c32       -1999999990
    RHS1      c34       -1999999986
    RHS1      c37       -1999999990
    RHS1      c38       -2999999777
    RHS1      c39       -1999999870
    RHS1      c40       -2999999923
    RHS1      c41       -1999999866
    RHS1      c42       -2999999902
    RHS1      c43       -1999999871
    RHS1      c44       -2999999923
    RHS1      c45       -1999999865
    RHS1      c46       -2999999921
    RHS1      c47       -1999999857
    RHS1      c48       -2999999928
    RHS1      c49       -1999999860
    RHS1      c50       -2999999920
    RHS1      c51       -1999999850
    RHS1      c52       -2999999799
    RHS1      c53       -1999999851
    RHS1      c54       -2999999910
    RHS1      c55       -1999999830
    RHS1      c56       -2999999920
    RHS1      c57       -1999999837
    RHS1      c58       -2999999800
    RHS1      c59       -1999999838
    RHS1      c60       -2999999891
    RHS1      c61       -1999999828
    RHS1      c62       -2999999901
    RHS1      c63       -1999999772
    RHS1      c64       -2999999910
    RHS1      c65       -1999999840
    RHS1      c66       -2999999925
    RHS1      c67       -1999999922
    RHS1      c68       -2999999908
    RHS1      c69       -1999999936
    RHS1      c70       -2999999909
    RHS1      c71       -1999999923
    RHS1      c72       -2999999886
    RHS1      c73       -1999999912
    RHS1      c110      -999999905
    RHS1      c111      95
    RHS1      c112      -999999905
    RHS1      c113      95
    RHS1      c114      -999999905
    RHS1      c115      95
    RHS1      c116      -999999905
    RHS1      c117      95
    RHS1      c118      -999999905
    RHS1      c119      95
    RHS1      c120      -999999905
    RHS1      c121      95
    RHS1      c122      -999999915
    RHS1      c123      85
    RHS1      c124      -999999915
    RHS1      c125      85
    RHS1      c126      -999999915
    RHS1      c127      85
    RHS1      c128      -999999915
    RHS1      c129      85
    RHS1      c130      -999999915
    RHS1      c131      85
    RHS1      c132      -999999915
    RHS1      c133      85
    RHS1      c134      -999999953
    RHS1      c135      47
    RHS1      c136      -999999953
    RHS1      c137      47
    RHS1      c138      -999999953
    RHS1      c139      47
    RHS1      c140      -999999953
    RHS1      c141      47
    RHS1      c142      -999999953
    RHS1      c143      47
    RHS1      c144      -999999953
    RHS1      c145      47
BOUNDS
 BV BND1      B0(10)  
 BV BND1      B1(10)  
 BV BND1      B2(10)  
 BV BND1      B3(11)  
 BV BND1      B4(9)   
 BV BND1      B5(8)   
 BV BND1      B6(10)  
 BV BND1      B7(8)   
 BV BND1      B8(9)   
 BV BND1      B9(12)  
 BV BND1      B10(8)  
 BV BND1      B11(7)  
 BV BND1      B12(9)  
 BV BND1      B13(11) 
 BV BND1      B14(10) 
 BV BND1      B15(12) 
 BV BND1      B16(9)  
 BV BND1      B17(8)  
 BV BND1      B18(0)  
 BV BND1      B19(0)  
 BV BND1      B20(0)  
 BV BND1      B21(2)  
 BV BND1      B22(2)  
 BV BND1      B23(0)  
 BV BND1      B24(4)  
 BV BND1      B25(0)  
 BV BND1      B26(0)  
 BV BND1      B27(0)  
 BV BND1      B28(0)  
 BV BND1      B29(0)  
 BV BND1      B30(0)  
 BV BND1      B31(2)  
 BV BND1      B32(0)  
 BV BND1      B33(2)  
 BV BND1      B34(2)  
 BV BND1      B35(2)  
 BV BND1      B36(0)  
 BV BND1      B37(0)  
 BV BND1      B38(0)  
 BV BND1      B39(0)  
 BV BND1      B40(0)  
 BV BND1      B41(2)  
 BV BND1      B42(0)  
 BV BND1      B43(2)  
 BV BND1      B44(4)  
 BV BND1      B45(0)  
 BV BND1      B46(0)  
 BV BND1      B47(0)  
 BV BND1      B48(0)  
 BV BND1      B49(0)  
 BV BND1      B50(0)  
 BV BND1      B51(2)  
 BV BND1      B52(2)  
 BV BND1      B53(0)  
 BV BND1      B54(0)  
 BV BND1      B55(0)  
 BV BND1      B56(0)  
 BV BND1      B57(0)  
 BV BND1      B58(0)  
 BV BND1      B59(0)  
 BV BND1      B60(2)  
 BV BND1      B61(2)  
 BV BND1      B62(0)  
 BV BND1      B63(0)  
 BV BND1      B64(0)  
 BV BND1      B65(0)  
 BV BND1      B66(0)  
 BV BND1      B67(0)  
 BV BND1      B68(0)  
 BV BND1      B69(0)  
 BV BND1      B70(2)  
 BV BND1      B71(2)  
 BV BND1      B72(0)  
 BV BND1      B73(0)  
 BV BND1      B74(0)  
 BV BND1      B75(0)  
 BV BND1      B76(0)  
 BV BND1      B77(0)  
 BV BND1      B78(0)  
 BV BND1      B79(0)  
 BV BND1      B80(0)  
 BV BND1      B81(0)  
 BV BND1      B82(0)  
 BV BND1      B83(0)  
 BV BND1      B84(0)  
 BV BND1      B85(0)  
 BV BND1      B86(0)  
 BV BND1      B87(0)  
 BV BND1      B88(0)  
 BV BND1      B89(0)  
 BV BND1      B90(0)  
 BV BND1      B91(0)  
 BV BND1      B92(0)  
 BV BND1      B93(0)  
 BV BND1      B94(0)  
 BV BND1      B95(0)  
 BV BND1      B96(0)  
 BV BND1      B97(0)  
 BV BND1      B98(0)  
 LI BND1      I99(11)   0
 LI BND1      I100(11)  0
 LI BND1      I101(13)  0
 LI BND1      I102(13)  0
 LI BND1      I103(12)  0
 LI BND1      I104(12)  0
 LI BND1      I105(11)  0
 LI BND1      I106(9)   0
 LI BND1      I107(11)  0
 LI BND1      I108(15)  0
 LI BND1      I109(12)  0
 LI BND1      I110(10)  0
 LI BND1      I111(10)  0
 LI BND1      I112(12)  0
 LI BND1      I113(12)  0
 LI BND1      I114(14)  0
 LI BND1      I115(12)  0
 LI BND1      I116(12)  0
 LI BND1      I117(1)   0
 BV BND1      B118(2) 
 BV BND1      B119(2) 
 BV BND1      B120(2) 
 BV BND1      B121(2) 
 BV BND1      B122(4) 
 BV BND1      B123(4) 
 BV BND1      B124(2) 
 BV BND1      B125(2) 
 BV BND1      B126(2) 
 BV BND1      B127(2) 
 BV BND1      B128(4) 
 BV BND1      B129(4) 
 BV BND1      B130(2) 
 BV BND1      B131(2) 
 BV BND1      B132(2) 
 BV BND1      B133(2) 
 BV BND1      B134(4) 
 BV BND1      B135(4) 
QCMATRIX   OF_constraint
    I103(12)  B122(4)   -0.5
    B122(4)   I103(12)  -0.5
    I104(12)  B123(4)   -0.5
    B123(4)   I104(12)  -0.5
    I109(12)  B128(4)   -0.5
    B128(4)   I109(12)  -0.5
    I110(10)  B129(4)   -0.5
    B129(4)   I110(10)  -0.5
    I115(12)  B134(4)   -0.5
    B134(4)   I115(12)  -0.5
    I116(12)  B135(4)   -0.5
    B135(4)   I116(12)  -0.5
ENDATA
